rcpsp/heur_output_bi_constraints/Log=2/heurj120.txt
encoding rcpsp/j120.sm/j12017_3.sm nv: 6670350 nc: 13514804 enctime: 107.54
encoding rcpsp/j120.sm/j12017_3.sm nv: 1410615 nc: 2854882 enctime: 17.86
c File: j12017_3.smnaivebi2.wcnf
c timeout
c final solution cost: 119
c CPU time: 72.939253
s UNKNOWN

c File: j12017_3.smbi2.wcnf
c timeout
c final solution cost: 112
c CPU time: 62.253431
s UNKNOWN


rcpsp/heur_output_bi_constraints/Log=2/heurj120.txt
encoding rcpsp/j120.sm/j12017_4.sm nv: 7375148 nc: 14993778 enctime: 125.62
encoding rcpsp/j120.sm/j12017_4.sm nv: 1481518 nc: 3008138 enctime: 19.33
c File: j12017_4.smnaivebi2.wcnf
c timeout
c final solution cost: 150
c CPU time: 74.930135
s UNKNOWN

c File: j12017_4.smbi2.wcnf
c timeout
c CPU time: 61.948982
s UNKNOWN


rcpsp/heur_output_bi_constraints/Log=2/heurj120.txt
encoding rcpsp/j120.sm/j12017_5.sm nv: 6133560 nc: 12487999 enctime: 99.72
encoding rcpsp/j120.sm/j12017_5.sm nv: 1488360 nc: 3027079 enctime: 21.01
c File: j12017_5.smnaivebi2.wcnf
c timeout
c final solution cost: 224
c CPU time: 72.725452
s UNKNOWN

c File: j12017_5.smbi2.wcnf
c timeout
c final solution cost: 141
c CPU time: 62.389362
s UNKNOWN


rcpsp/heur_output_bi_constraints/Log=2/heurj120.txt
encoding rcpsp/j120.sm/j12017_6.sm nv: 5769162 nc: 11746685 enctime: 96.08
encoding rcpsp/j120.sm/j12017_6.sm nv: 1531152 nc: 3114425 enctime: 21.49
c File: j12017_6.smnaivebi2.wcnf
c timeout
c final solution cost: 156
c CPU time: 72.074162
s UNKNOWN

c File: j12017_6.smbi2.wcnf
c timeout
c final solution cost: 144
c CPU time: 62.483118
s UNKNOWN


rcpsp/heur_output_bi_constraints/Log=2/heurj120.txt
encoding rcpsp/j120.sm/j12017_7.sm nv: 6116320 nc: 12496155 enctime: 105.73
encoding rcpsp/j120.sm/j12017_7.sm nv: 1591310 nc: 3247625 enctime: 23.18
c File: j12017_7.smnaivebi2.wcnf
c timeout
c final solution cost: 546
c CPU time: 73.341862
s UNKNOWN

c File: j12017_7.smbi2.wcnf
c timeout
c final solution cost: 155
c CPU time: 62.657189
s UNKNOWN


rcpsp/heur_output_bi_constraints/Log=2/heurj120.txt
encoding rcpsp/j120.sm/j12017_8.sm nv: 6054645 nc: 12314609 enctime: 99.71
encoding rcpsp/j120.sm/j12017_8.sm nv: 1511270 nc: 3070634 enctime: 21.48
c File: j12017_8.smnaivebi2.wcnf
c timeout
c final solution cost: 146
c CPU time: 72.487882
s UNKNOWN

c File: j12017_8.smbi2.wcnf
c timeout
c final solution cost: 134
c CPU time: 62.463172
s UNKNOWN


rcpsp/heur_output_bi_constraints/Log=2/heurj120.txt
encoding rcpsp/j120.sm/j12017_9.sm nv: 5677470 nc: 11567551 enctime: 98.82
encoding rcpsp/j120.sm/j12017_9.sm nv: 1477575 nc: 3007363 enctime: 18.47
c File: j12017_9.smnaivebi2.wcnf
c timeout
c final solution cost: 149
c CPU time: 72.276201
s UNKNOWN

c File: j12017_9.smbi2.wcnf
c timeout
c final solution cost: 148
c CPU time: 62.493579
s UNKNOWN


rcpsp/heur_output_bi_constraints/Log=2/heurj120.txt
encoding rcpsp/j120.sm/j1201_7.sm nv: 638608 nc: 1573030 enctime: 28.72
encoding rcpsp/j120.sm/j1201_7.sm nv: 116632 nc: 283378 enctime: 1.46
c File: j1201_7.smnaivebi2.wcnf
c timeout
c final solution cost: 98
c CPU time: 65.415948
s UNKNOWN

c File: j1201_7.smbi2.wcnf
c timeout
c final solution cost: 95
c CPU time: 60.307066
s UNKNOWN


rcpsp/heur_output_bi_constraints/Log=2/heurj120.txt
encoding rcpsp/j120.sm/j12018_10.sm nv: 9594120 nc: 19397123 enctime: 154.88
encoding rcpsp/j120.sm/j12018_10.sm nv: 1481445 nc: 2991223 enctime: 20.59
c File: j12018_10.smnaivebi2.wcnf
c timeout
c final solution cost: 558
c CPU time: 78.479412
s UNKNOWN

c File: j12018_10.smbi2.wcnf
c timeout
c final solution cost: 94
c CPU time: 62.360468
s UNKNOWN


rcpsp/heur_output_bi_constraints/Log=2/heurj120.txt
encoding rcpsp/j120.sm/j12018_1.sm nv: 7694844 nc: 15668452 enctime: 138.44
encoding rcpsp/j120.sm/j12018_1.sm nv: 1824440 nc: 3711032 enctime: 24.31
c File: j12018_1.smnaivebi2.wcnf
c timeout
c final solution cost: 647
c CPU time: 75.841713
s UNKNOWN

c File: j12018_1.smbi2.wcnf
c timeout
c final solution cost: 144
c CPU time: 62.968880
s UNKNOWN


rcpsp/heur_output_bi_constraints/Log=2/heurj120.txt
encoding rcpsp/j120.sm/j12018_2.sm nv: 7958639 nc: 16161902 enctime: 138.20
encoding rcpsp/j120.sm/j12018_2.sm nv: 1582487 nc: 3209774 enctime: 20.78
c File: j12018_2.smnaivebi2.wcnf
c timeout
c final solution cost: 482
c CPU time: 75.605621
s UNKNOWN

c File: j12018_2.smbi2.wcnf
c timeout
c final solution cost: 120
c CPU time: 62.554631
s UNKNOWN


rcpsp/heur_output_bi_constraints/Log=2/heurj120.txt
encoding rcpsp/j120.sm/j12018_3.sm nv: 8932440 nc: 18064400 enctime: 147.04
encoding rcpsp/j120.sm/j12018_3.sm nv: 1678216 nc: 3390328 enctime: 22.60
c File: j12018_3.smnaivebi2.wcnf
c timeout
c final solution cost: 511
c CPU time: 77.564908
s UNKNOWN

c File: j12018_3.smbi2.wcnf
c timeout
c final solution cost: 102
c CPU time: 62.645147
s UNKNOWN


rcpsp/heur_output_bi_constraints/Log=2/heurj120.txt
encoding rcpsp/j120.sm/j12018_4.sm nv: 8444052 nc: 17087188 enctime: 140.96
encoding rcpsp/j120.sm/j12018_4.sm nv: 1618875 nc: 3272410 enctime: 25.94
c File: j12018_4.smnaivebi2.wcnf
c timeout
c final solution cost: 530
c CPU time: 76.559785
s UNKNOWN

c File: j12018_4.smbi2.wcnf
c timeout
c final solution cost: 103
c CPU time: 62.551541
s UNKNOWN


rcpsp/heur_output_bi_constraints/Log=2/heurj120.txt
encoding rcpsp/j120.sm/j12018_5.sm nv: 8293802 nc: 16818172 enctime: 139.33
encoding rcpsp/j120.sm/j12018_5.sm nv: 1690379 nc: 3423991 enctime: 22.33
c File: j12018_5.smnaivebi2.wcnf
c timeout
c final solution cost: 546
c CPU time: 76.412645
s UNKNOWN

c File: j12018_5.smbi2.wcnf
c timeout
c final solution cost: 122
c CPU time: 62.656149
s UNKNOWN


rcpsp/heur_output_bi_constraints/Log=2/heurj120.txt
encoding rcpsp/j120.sm/j12018_6.sm nv: 6200385 nc: 12618304 enctime: 109.66
encoding rcpsp/j120.sm/j12018_6.sm nv: 1518854 nc: 3087714 enctime: 19.71
c File: j12018_6.smnaivebi2.wcnf
c timeout
c final solution cost: 144
c CPU time: 72.704125
s UNKNOWN

c File: j12018_6.smbi2.wcnf
c timeout
c final solution cost: 136
c CPU time: 62.489807
s UNKNOWN


rcpsp/heur_output_bi_constraints/Log=2/heurj120.txt
encoding rcpsp/j120.sm/j12018_7.sm nv: 6881838 nc: 13971819 enctime: 116.18
encoding rcpsp/j120.sm/j12018_7.sm nv: 1427502 nc: 2894699 enctime: 18.61
c File: j12018_7.smnaivebi2.wcnf
c timeout
c final solution cost: 439
c CPU time: 73.712733
s UNKNOWN

c File: j12018_7.smbi2.wcnf
c timeout
c final solution cost: 121
c CPU time: 62.351530
s UNKNOWN


rcpsp/heur_output_bi_constraints/Log=2/heurj120.txt
encoding rcpsp/j120.sm/j12018_8.sm nv: 7588440 nc: 15371543 enctime: 122.63
encoding rcpsp/j120.sm/j12018_8.sm nv: 1583880 nc: 3204943 enctime: 19.93
c File: j12018_8.smnaivebi2.wcnf
c timeout
c final solution cost: 194
c CPU time: 74.607895
s UNKNOWN

c File: j12018_8.smbi2.wcnf
c timeout
c final solution cost: 107
c CPU time: 62.413069
s UNKNOWN


rcpsp/heur_output_bi_constraints/Log=2/heurj120.txt
encoding rcpsp/j120.sm/j12018_9.sm nv: 9752106 nc: 19708515 enctime: 151.48
encoding rcpsp/j120.sm/j12018_9.sm nv: 1577121 nc: 3183395 enctime: 20.61
c File: j12018_9.smnaivebi2.wcnf
c timeout
c final solution cost: 95
c CPU time: 77.926162
s UNKNOWN

c File: j12018_9.smbi2.wcnf
c timeout
c final solution cost: 90
c CPU time: 62.355511
s UNKNOWN


rcpsp/heur_output_bi_constraints/Log=2/heurj120.txt
encoding rcpsp/j120.sm/j1201_8.sm nv: 578124 nc: 1414130 enctime: 23.15
encoding rcpsp/j120.sm/j1201_8.sm nv: 129078 nc: 312510 enctime: 2.21
c File: j1201_8.smnaivebi2.wcnf
c timeout
c final solution cost: 105
c CPU time: 64.784733
s UNKNOWN

c File: j1201_8.smbi2.wcnf
c timeout
c final solution cost: 104
c CPU time: 60.336659
s UNKNOWN


rcpsp/heur_output_bi_constraints/Log=2/heurj120.txt
encoding rcpsp/j120.sm/j12019_10.sm nv: 11872368 nc: 23947897 enctime: 160.83
encoding rcpsp/j120.sm/j12019_10.sm nv: 1586394 nc: 3195652 enctime: 14.81
c File: j12019_10.smnaivebi2.wcnf
c timeout
c final solution cost: 78
c CPU time: 79.769916
s UNKNOWN

c File: j12019_10.smbi2.wcnf
c timeout
c final solution cost: 75
c CPU time: 62.172972
s UNKNOWN


rcpsp/heur_output_bi_constraints/Log=2/heurj120.txt
encoding rcpsp/j120.sm/j12019_1.sm nv: 10965642 nc: 22066723 enctime: 186.42
encoding rcpsp/j120.sm/j12019_1.sm nv: 1594047 nc: 3204228 enctime: 29.87
c File: j12019_1.smnaivebi2.wcnf
c timeout
c final solution cost: 610
c CPU time: 85.961707
s UNKNOWN

c File: j12019_1.smbi2.wcnf
c timeout
c final solution cost: 73
c CPU time: 63.372115
s UNKNOWN


rcpsp/heur_output_bi_constraints/Log=2/heurj120.txt
encoding rcpsp/j120.sm/j12019_2.sm nv: 11988750 nc: 24172830 enctime: 275.90
encoding rcpsp/j120.sm/j12019_2.sm nv: 1650625 nc: 3324030 enctime: 21.67
c File: j12019_2.smnaivebi2.wcnf
c timeout
c final solution cost: 158
c CPU time: 89.463352
s UNKNOWN

c File: j12019_2.smbi2.wcnf
c timeout
c final solution cost: 82
c CPU time: 63.387176
s UNKNOWN


rcpsp/heur_output_bi_constraints/Log=2/heurj120.txt
encoding rcpsp/j120.sm/j12019_3.sm nv: 9590001 nc: 19344207 enctime: 214.93
encoding rcpsp/j120.sm/j12019_3.sm nv: 1346490 nc: 2712272 enctime: 25.86
c File: j12019_3.smnaivebi2.wcnf
c timeout
c final solution cost: 327
c CPU time: 84.876368
s UNKNOWN

c File: j12019_3.smbi2.wcnf
c timeout
c final solution cost: 89
c CPU time: 63.500684
s UNKNOWN


rcpsp/heur_output_bi_constraints/Log=2/heurj120.txt
encoding rcpsp/j120.sm/j12019_4.sm nv: 8154685 nc: 16508185 enctime: 191.18
encoding rcpsp/j120.sm/j12019_4.sm nv: 1495235 nc: 3023395 enctime: 27.23
c File: j12019_4.smnaivebi2.wcnf
c timeout
c final solution cost: 127
c CPU time: 80.251029
s UNKNOWN

c File: j12019_4.smbi2.wcnf
c timeout
c final solution cost: 109
c CPU time: 63.315755
s UNKNOWN


rcpsp/heur_output_bi_constraints/Log=2/heurj120.txt
encoding rcpsp/j120.sm/j12019_5.sm nv: 8433762 nc: 17086767 enctime: 198.38
encoding rcpsp/j120.sm/j12019_5.sm nv: 1551612 nc: 3139867 enctime: 27.79
c File: j12019_5.smnaivebi2.wcnf
c timeout
c final solution cost: 657
c CPU time: 82.757503
s UNKNOWN

c File: j12019_5.smbi2.wcnf
c timeout
c final solution cost: 108
c CPU time: 63.485015
s UNKNOWN


rcpsp/heur_output_bi_constraints/Log=2/heurj120.txt
encoding rcpsp/j120.sm/j12019_6.sm nv: 10591038 nc: 21380802 enctime: 245.65
encoding rcpsp/j120.sm/j12019_6.sm nv: 1640205 nc: 3307236 enctime: 31.18
c File: j12019_6.smnaivebi2.wcnf
c timeout
c final solution cost: 97
c CPU time: 87.520003
s UNKNOWN

c File: j12019_6.smbi2.wcnf
c timeout
c final solution cost: 89
c CPU time: 63.808835
s UNKNOWN


rcpsp/heur_output_bi_constraints/Log=2/heurj120.txt
encoding rcpsp/j120.sm/j12019_7.sm nv: 10658250 nc: 21509015 enctime: 246.41
encoding rcpsp/j120.sm/j12019_7.sm nv: 1626370 nc: 3278231 enctime: 31.53
c File: j12019_7.smnaivebi2.wcnf
c timeout
c final solution cost: 616
c CPU time: 86.651122
s UNKNOWN

c File: j12019_7.smbi2.wcnf
c timeout
c final solution cost: 86
c CPU time: 63.300151
s UNKNOWN


rcpsp/heur_output_bi_constraints/Log=2/heurj120.txt
encoding rcpsp/j120.sm/j12019_8.sm nv: 10305400 nc: 20818215 enctime: 241.05
encoding rcpsp/j120.sm/j12019_8.sm nv: 1545810 nc: 3118699 enctime: 29.40
c File: j12019_8.smnaivebi2.wcnf
c timeout
c final solution cost: 110
c CPU time: 85.768120
s UNKNOWN

c File: j12019_8.smbi2.wcnf
c timeout
c final solution cost: 89
c CPU time: 63.686806
s UNKNOWN


rcpsp/heur_output_bi_constraints/Log=2/heurj120.txt
encoding rcpsp/j120.sm/j12019_9.sm nv: 9436025 nc: 19041312 enctime: 208.80
encoding rcpsp/j120.sm/j12019_9.sm nv: 1452825 nc: 2928032 enctime: 26.24
c File: j12019_9.smnaivebi2.wcnf
c timeout
c final solution cost: 491
c CPU time: 83.199281
s UNKNOWN

c File: j12019_9.smbi2.wcnf
c timeout
c final solution cost: 91
c CPU time: 63.170431
s UNKNOWN


rcpsp/heur_output_bi_constraints/Log=2/heurj120.txt
encoding rcpsp/j120.sm/j1201_9.sm nv: 629726 nc: 1569581 enctime: 38.39
encoding rcpsp/j120.sm/j1201_9.sm nv: 141988 nc: 350236 enctime: 4.07
c File: j1201_9.smnaivebi2.wcnf
c timeout
c final solution cost: 97
c CPU time: 66.598588
s UNKNOWN

c File: j1201_9.smbi2.wcnf
c timeout
c final solution cost: 97
c CPU time: 60.615484
s UNKNOWN


rcpsp/heur_output_bi_constraints/Log=2/heurj120.txt
encoding rcpsp/j120.sm/j12020_10.sm nv: 13285166 nc: 26745227 enctime: 287.33
encoding rcpsp/j120.sm/j12020_10.sm nv: 1672662 nc: 3363179 enctime: 32.66
c File: j12020_10.smnaivebi2.wcnf
c timeout
c final solution cost: 423
c CPU time: 90.562695
s UNKNOWN

c File: j12020_10.smbi2.wcnf
c timeout
c final solution cost: 71
c CPU time: 63.428109
s UNKNOWN


rcpsp/heur_output_bi_constraints/Log=2/heurj120.txt
encoding rcpsp/j120.sm/j12020_1.sm nv: 10756326 nc: 21685226 enctime: 234.36
encoding rcpsp/j120.sm/j12020_1.sm nv: 1651047 nc: 3324835 enctime: 29.80
c File: j12020_1.smnaivebi2.wcnf
c timeout
c final solution cost: 81
c CPU time: 85.668950
s UNKNOWN

c File: j12020_1.smbi2.wcnf
c timeout
c final solution cost: 80
c CPU time: 63.454422
s UNKNOWN


rcpsp/heur_output_bi_constraints/Log=2/heurj120.txt
encoding rcpsp/j120.sm/j12020_2.sm nv: 10539540 nc: 21255331 enctime: 225.61
encoding rcpsp/j120.sm/j12020_2.sm nv: 1596900 nc: 3216611 enctime: 28.33
c File: j12020_2.smnaivebi2.wcnf
c timeout
c final solution cost: 216
c CPU time: 84.848662
s UNKNOWN

c File: j12020_2.smbi2.wcnf
c timeout
c final solution cost: 82
c CPU time: 63.765537
s UNKNOWN


rcpsp/heur_output_bi_constraints/Log=2/heurj120.txt
encoding rcpsp/j120.sm/j12020_3.sm nv: 13290312 nc: 26790615 enctime: 275.75
encoding rcpsp/j120.sm/j12020_3.sm nv: 1631168 nc: 3283627 enctime: 30.45
c File: j12020_3.smnaivebi2.wcnf
c timeout
c final solution cost: 93
c CPU time: 91.879778
s UNKNOWN

c File: j12020_3.smbi2.wcnf
c timeout
c final solution cost: 76
c CPU time: 63.506523
s UNKNOWN


rcpsp/heur_output_bi_constraints/Log=2/heurj120.txt
encoding rcpsp/j120.sm/j12020_4.sm nv: 11445696 nc: 23032560 enctime: 231.97
encoding rcpsp/j120.sm/j12020_4.sm nv: 1464192 nc: 2942659 enctime: 18.64
c File: j12020_4.smnaivebi2.wcnf
c timeout
c final solution cost: 625
c CPU time: 85.610014
s UNKNOWN

c File: j12020_4.smbi2.wcnf
c optimal
c final solution cost: 68
c CPU time: 36.096785
s OPTIMUM FOUND


rcpsp/heur_output_bi_constraints/Log=2/heurj120.txt
encoding rcpsp/j120.sm/j12020_5.sm nv: 12602646 nc: 25305747 enctime: 242.60
encoding rcpsp/j120.sm/j12020_5.sm nv: 1552050 nc: 3113241 enctime: 27.43
c File: j12020_5.smnaivebi2.wcnf
c timeout
c final solution cost: 505
c CPU time: 87.748623
s UNKNOWN

c File: j12020_5.smbi2.wcnf
c optimal
c final solution cost: 60
c CPU time: 16.796868
s OPTIMUM FOUND


rcpsp/heur_output_bi_constraints/Log=2/heurj120.txt
encoding rcpsp/j120.sm/j12020_6.sm nv: 11676126 nc: 23444568 enctime: 225.16
encoding rcpsp/j120.sm/j12020_6.sm nv: 1681988 nc: 3374021 enctime: 29.13
c File: j12020_6.smnaivebi2.wcnf
c optimal
c final solution cost: 80
c CPU time: 42.083028
s OPTIMUM FOUND

c File: j12020_6.smbi2.wcnf
c optimal
c final solution cost: 80
c CPU time: 5.959507
s OPTIMUM FOUND


rcpsp/heur_output_bi_constraints/Log=2/heurj120.txt
encoding rcpsp/j120.sm/j12020_7.sm nv: 11280967 nc: 22668856 enctime: 220.02
encoding rcpsp/j120.sm/j12020_7.sm nv: 1431308 nc: 2872783 enctime: 17.97
c File: j12020_7.smnaivebi2.wcnf
c timeout
c final solution cost: 95
c CPU time: 84.939848
s UNKNOWN

c File: j12020_7.smbi2.wcnf
c timeout
c final solution cost: 63
c CPU time: 63.042571
s UNKNOWN


rcpsp/heur_output_bi_constraints/Log=2/heurj120.txt
encoding rcpsp/j120.sm/j12020_8.sm nv: 9535078 nc: 19278404 enctime: 190.69
encoding rcpsp/j120.sm/j12020_8.sm nv: 1626905 nc: 3285414 enctime: 26.44
c File: j12020_8.smnaivebi2.wcnf
c timeout
c final solution cost: 547
c CPU time: 82.361754
s UNKNOWN

c File: j12020_8.smbi2.wcnf
c timeout
c final solution cost: 102
c CPU time: 63.419822
s UNKNOWN


rcpsp/heur_output_bi_constraints/Log=2/heurj120.txt
encoding rcpsp/j120.sm/j12020_9.sm nv: 17914050 nc: 35984906 enctime: 347.99
encoding rcpsp/j120.sm/j12020_9.sm nv: 1998675 nc: 4010321 enctime: 36.91
c File: j12020_9.smnaivebi2.wcnf
c optimal
c final solution cost: 80
c CPU time: 66.722001
s OPTIMUM FOUND

c File: j12020_9.smbi2.wcnf
c optimal
c final solution cost: 80
c CPU time: 5.452938
s OPTIMUM FOUND


